
Gurobi 8.1.0 (mac64, Python) logging started Sat Apr  3 14:49:29 2021

Academic license - for non-commercial use only

Gurobi 8.1.0 (mac64, Python) logging started Sat Apr  3 15:12:31 2021

Academic license - for non-commercial use only

Gurobi 8.1.0 (mac64, Python) logging started Sat Apr  3 15:21:58 2021

Academic license - for non-commercial use only

Gurobi 8.1.0 (mac64, Python) logging started Sat Apr  3 15:23:26 2021

Academic license - for non-commercial use only

Gurobi 8.1.0 (mac64, Python) logging started Sat Apr  3 15:24:51 2021

Academic license - for non-commercial use only

Gurobi 8.1.0 (mac64, Python) logging started Sat Apr  3 15:25:05 2021

Academic license - for non-commercial use only

Gurobi 8.1.0 (mac64, Python) logging started Sat Apr  3 15:26:23 2021

Academic license - for non-commercial use only

Gurobi 8.1.0 (mac64, Python) logging started Sat Apr  3 15:27:17 2021

Academic license - for non-commercial use only

Gurobi 8.1.0 (mac64, Python) logging started Sat Apr  3 15:28:21 2021

Academic license - for non-commercial use only

Gurobi 8.1.0 (mac64, Python) logging started Sat Apr  3 15:28:36 2021

Academic license - for non-commercial use only

Gurobi 8.1.0 (mac64, Python) logging started Sat Apr  3 15:29:24 2021

Academic license - for non-commercial use only

Gurobi 8.1.0 (mac64, Python) logging started Sat Apr  3 15:30:19 2021

Academic license - for non-commercial use only

Gurobi 8.1.0 (mac64, Python) logging started Sat Apr  3 15:31:13 2021

Academic license - for non-commercial use only

Gurobi 8.1.0 (mac64, Python) logging started Sat Apr  3 15:32:07 2021

Academic license - for non-commercial use only

Gurobi 8.1.0 (mac64, Python) logging started Sat Apr  3 15:33:00 2021

Academic license - for non-commercial use only

Gurobi 8.1.0 (mac64, Python) logging started Sat Apr  3 15:33:14 2021

Academic license - for non-commercial use only

Gurobi 8.1.0 (mac64, Python) logging started Sat Apr  3 15:37:19 2021

Academic license - for non-commercial use only

Gurobi 8.1.0 (mac64, Python) logging started Sat Apr  3 15:40:56 2021

Academic license - for non-commercial use only

Gurobi 8.1.0 (mac64, Python) logging started Sat Apr  3 15:44:36 2021

Academic license - for non-commercial use only

Gurobi 8.1.0 (mac64, Python) logging started Sat Apr  3 16:27:11 2021

Academic license - for non-commercial use only

Gurobi 8.1.0 (mac64, Python) logging started Sat Apr  3 16:28:02 2021

Academic license - for non-commercial use only

Gurobi 8.1.0 (mac64, Python) logging started Sat Apr  3 16:28:51 2021

Academic license - for non-commercial use only

Gurobi 8.1.0 (mac64, Python) logging started Sat Apr  3 16:29:41 2021

Academic license - for non-commercial use only

Gurobi 8.1.0 (mac64, Python) logging started Sat Apr  3 16:30:33 2021

Academic license - for non-commercial use only

Gurobi 8.1.0 (mac64, Python) logging started Sat Apr  3 16:30:47 2021

Academic license - for non-commercial use only

Gurobi 8.1.0 (mac64, Python) logging started Sat Apr  3 16:31:32 2021

Academic license - for non-commercial use only

Gurobi 8.1.0 (mac64, Python) logging started Sat Apr  3 16:32:22 2021

Academic license - for non-commercial use only

Gurobi 8.1.0 (mac64, Python) logging started Sat Apr  3 16:33:12 2021

Academic license - for non-commercial use only

Gurobi 8.1.0 (mac64, Python) logging started Sat Apr  3 16:34:03 2021

Academic license - for non-commercial use only

Gurobi 8.1.0 (mac64, Python) logging started Sat Apr  3 16:34:53 2021

Academic license - for non-commercial use only

Gurobi 8.1.0 (mac64, Python) logging started Sat Apr  3 16:35:07 2021

Academic license - for non-commercial use only

Gurobi 8.1.0 (mac64, Python) logging started Sat Apr  3 16:35:52 2021

Academic license - for non-commercial use only

Gurobi 8.1.0 (mac64, Python) logging started Sat Apr  3 16:36:41 2021

Academic license - for non-commercial use only

Gurobi 8.1.0 (mac64, Python) logging started Sat Apr  3 16:37:31 2021

Academic license - for non-commercial use only

Gurobi 8.1.0 (mac64, Python) logging started Sat Apr  3 16:38:22 2021

Academic license - for non-commercial use only

Gurobi 8.1.0 (mac64, Python) logging started Sat Apr  3 16:39:12 2021

Academic license - for non-commercial use only

Gurobi 8.1.0 (mac64, Python) logging started Sat Apr  3 16:39:26 2021

Academic license - for non-commercial use only

Gurobi 8.1.0 (mac64, Python) logging started Sat Apr  3 16:40:11 2021

Academic license - for non-commercial use only

Gurobi 8.1.0 (mac64, Python) logging started Sat Apr  3 16:41:01 2021

Academic license - for non-commercial use only

Gurobi 8.1.0 (mac64, Python) logging started Sat Apr  3 16:41:52 2021

Academic license - for non-commercial use only

Gurobi 8.1.0 (mac64, Python) logging started Sat Apr  3 16:42:43 2021

Academic license - for non-commercial use only

Gurobi 8.1.0 (mac64, Python) logging started Sat Apr  3 16:43:33 2021

Academic license - for non-commercial use only

Gurobi 8.1.0 (mac64, Python) logging started Sat Apr  3 16:43:47 2021

Academic license - for non-commercial use only

Gurobi 8.1.0 (mac64, Python) logging started Sat Apr  3 16:44:34 2021

Academic license - for non-commercial use only

Gurobi 8.1.0 (mac64, Python) logging started Sat Apr  3 16:45:24 2021

Academic license - for non-commercial use only

Gurobi 8.1.0 (mac64, Python) logging started Sat Apr  3 16:46:14 2021

Academic license - for non-commercial use only

Gurobi 8.1.0 (mac64, Python) logging started Sat Apr  3 16:47:03 2021

Academic license - for non-commercial use only

Gurobi 8.1.0 (mac64, Python) logging started Sat Apr  3 16:47:53 2021

Academic license - for non-commercial use only

Gurobi 8.1.0 (mac64, Python) logging started Sat Apr  3 16:48:07 2021

Academic license - for non-commercial use only

Gurobi 8.1.0 (mac64, Python) logging started Sat Apr  3 16:48:52 2021

Academic license - for non-commercial use only

Gurobi 8.1.0 (mac64, Python) logging started Sat Apr  3 16:49:41 2021

Academic license - for non-commercial use only

Gurobi 8.1.0 (mac64, Python) logging started Sat Apr  3 16:50:31 2021

Academic license - for non-commercial use only

Gurobi 8.1.0 (mac64, Python) logging started Sat Apr  3 16:51:21 2021

Academic license - for non-commercial use only

Gurobi 8.1.0 (mac64, Python) logging started Sat Apr  3 16:52:10 2021

Academic license - for non-commercial use only

Gurobi 8.1.0 (mac64, Python) logging started Sat Apr  3 16:52:24 2021

Academic license - for non-commercial use only

Gurobi 8.1.0 (mac64, Python) logging started Sat Apr  3 16:54:37 2021

Academic license - for non-commercial use only

Gurobi 8.1.0 (mac64, Python) logging started Sat Apr  3 17:01:26 2021

Academic license - for non-commercial use only

Gurobi 8.1.0 (mac64, Python) logging started Sat Apr  3 17:06:53 2021

Academic license - for non-commercial use only

Gurobi 8.1.0 (mac64, Python) logging started Sat Apr  3 17:14:04 2021

Academic license - for non-commercial use only

Gurobi 8.1.0 (mac64, Python) logging started Sat Apr  3 17:19:35 2021

Academic license - for non-commercial use only

Gurobi 8.1.0 (mac64, Python) logging started Sat Apr  3 17:23:24 2021

Academic license - for non-commercial use only

Gurobi 8.1.0 (mac64, Python) logging started Sat Apr  3 17:27:29 2021

Academic license - for non-commercial use only

Gurobi 8.1.0 (mac64, Python) logging started Sat Apr  3 17:31:13 2021

Academic license - for non-commercial use only

Gurobi 8.1.0 (mac64, Python) logging started Sat Apr  3 17:35:02 2021

Academic license - for non-commercial use only

Gurobi 8.1.0 (mac64, Python) logging started Sat Apr  3 17:38:50 2021

Academic license - for non-commercial use only

Gurobi 8.1.0 (mac64, Python) logging started Sat Apr  3 17:42:43 2021

Academic license - for non-commercial use only

Gurobi 8.1.0 (mac64, Python) logging started Sat Apr  3 17:47:27 2021

Academic license - for non-commercial use only
